184 300 80 59 79 61 72 84 68 58 67 89 70 93 76 55 89 87 65 79 91 74 87 85 53 56 95 99 51 99 85 54 58 65 89 87 76 60 96 68 93 87 56 62 79 83 93 93 94 57 96 84 55 82 94 59 88 62 82 90 60 67 68 68 56 56 80 82 91 100 100 83 86 80 70 90 87 62 82 54 94 77 63 100 58 56 83 71 68 64 85 53 55 52 96 61 84 100 67 74 99 91 82 59 96 76 99 82 88 80 87 81 56 74 54 89 80 87 84 72 76 68 100 81 96 96 67 79 69 58 77 68 74 83 77 69 58 100 75 70 79 86 76 59 59 80 72 63 67 56 86 67 74 59 98 94 54 89 97 99 98 99 66 71 81 67 64 64 66 89 84 69 75 59 78 84 90 100 98 81 55 57 98 54 66 69 